; benchmark generated from python API
(set-info :status unknown)
(declare-fun syscall_stub_newfstatat_83_64 () (_ BitVec 64))
(declare-fun mem_c0080014_89_32 () (_ BitVec 32))
(declare-fun mem_c0080018_88_32 () (_ BitVec 32))
(declare-fun mem_c0080024_86_32 () (_ BitVec 32))
(declare-fun mem_c0080020_87_32 () (_ BitVec 32))
(declare-fun mem_c0080010_84_32 () (_ BitVec 32))
(declare-fun mem_c0080008_85_32 () (_ BitVec 32))
(declare-fun mem_c0000f45_79_992 () (_ BitVec 992))
(declare-fun mem_fffffffffffffff0_163_128 () (_ BitVec 128))
(declare-fun mem_c0001010_98_32 () (_ BitVec 32))
(declare-fun mem_0_225_128 () (_ BitVec 128))
(declare-fun mem_10_254_128 () (_ BitVec 128))
(declare-fun mem_20_298_128 () (_ BitVec 128))
(declare-fun mem_30_352_128 () (_ BitVec 128))
(assert
 (let ((?x47 ((_ extract 31 0) syscall_stub_newfstatat_83_64)))
 (bvule ?x47 (_ bv4294963200 32))))
(assert
 (let ((?x123 (bvadd mem_c0080018_88_32 mem_c0080014_89_32)))
 (let ((?x129 (concat (_ bv0 32) ?x123)))
 (let ((?x3465604 (concat (concat (_ bv0 26) mem_c0080024_86_32) (_ bv0 1))))
 (let ((?x201 (concat (_ bv0 27) mem_c0080024_86_32)))
 (let ((?x3466476 (bvadd ?x201 ?x3465604)))
 (let ((?x2820984 (concat ?x3466476 (_ bv0 3))))
 (let ((?x3390313 (concat (concat (_ bv0 29) mem_c0080024_86_32) (_ bv0 1))))
 (let ((?x190 (concat (_ bv0 30) mem_c0080024_86_32)))
 (let ((?x3466412 (bvadd (bvadd ?x190 ?x3390313) ?x2820984)))
 (let ((?x3464998 (concat ?x3466412 (_ bv0 2))))
 (let ((?x168 (concat (_ bv0 32) mem_c0080020_87_32)))
 (let ((?x2822417 (bvadd ?x168 ?x3464998)))
 (let ((?x3461354 (concat (concat (_ bv0 29) mem_c0080010_84_32) (_ bv0 1))))
 (let ((?x161 (concat (_ bv0 30) mem_c0080010_84_32)))
 (let ((?x3462866 (bvadd ?x161 ?x3461354)))
 (let ((?x3464565 (concat ?x3462866 (_ bv0 2))))
 (let ((?x143 (concat (_ bv0 32) mem_c0080008_85_32)))
 (let ((?x3465119 (bvadd ?x143 ?x3464565)))
 (let (($x3465086 (bvsle ?x2822417 ?x3465119)))
 (let ((?x3465067 (ite $x3465086 ?x3465119 ?x2822417)))
 (let (($x3465958 (bvsle ?x129 ?x3465067)))
 (let ((?x2545777 (ite $x3465958 ?x3465067 ?x129)))
 (let (($x3461414 (= (_ bv0 64) ?x2545777)))
 (not $x3461414)))))))))))))))))))))))))
(assert
 (let ((?x2189 ((_ extract 900 900) mem_c0000f45_79_992)))
 (= (_ bv0 1) ?x2189)))
(assert
 (let ((?x2374 ((_ extract 839 832) mem_c0000f45_79_992)))
 (let ((?x11156 (concat (_ bv72057594037927935 56) ?x2374)))
 (let ((?x11157 (bvmul (_ bv18446744073709551615 64) ?x11156)))
 (let ((?x2427 ((_ extract 775 768) mem_c0000f45_79_992)))
 (let ((?x2419 ((_ extract 767 760) mem_c0000f45_79_992)))
 (let ((?x2429 ((_ extract 759 752) mem_c0000f45_79_992)))
 (let ((?x2417 ((_ extract 751 744) mem_c0000f45_79_992)))
 (let ((?x2410 ((_ extract 743 736) mem_c0000f45_79_992)))
 (let ((?x2411 ((_ extract 735 728) mem_c0000f45_79_992)))
 (let ((?x4124 (concat (concat ((_ extract 719 712) mem_c0000f45_79_992) ((_ extract 727 720) mem_c0000f45_79_992)) ?x2411)))
 (let ((?x4642 (concat ?x4124 ?x2410)))
 (let ((?x3823 (concat (concat (concat (concat ?x4642 ?x2417) ?x2429) ?x2419) ?x2427)))
 (let ((?x17565 (bvadd ?x3823 ?x11157)))
 (let ((?x17657 ((_ extract 63 63) ?x17565)))
 (let (($x17606 (= (_ bv1 1) ?x17657)))
 (not $x17606)))))))))))))))))
(assert
 (let ((?x4996 ((_ extract 837 832) mem_c0000f45_79_992)))
 (let (($x3467 (bvule ?x4996 (_ bv48 6))))
 (not $x3467))))
(assert
 (let ((?x6435 ((_ extract 839 836) mem_c0000f45_79_992)))
 (= (_ bv15 4) ?x6435)))
(assert
 (let ((?x6423 ((_ extract 835 832) mem_c0000f45_79_992)))
 (let ((?x6432 (concat (_ bv0 60) ?x6423)))
 (let ((?x76531 ((_ extract 7 0) mem_fffffffffffffff0_163_128)))
 (let (($x72760 (= (_ bv10 8) ?x76531)))
 (let ((?x58929 (ite $x72760 (_ bv1 1) (_ bv0 1))))
 (let ((?x70843 ((_ extract 15 8) mem_fffffffffffffff0_163_128)))
 (let (($x75953 (= (_ bv10 8) ?x70843)))
 (let ((?x59309 (ite $x75953 (_ bv1 1) (_ bv0 1))))
 (let ((?x58597 ((_ extract 23 16) mem_fffffffffffffff0_163_128)))
 (let (($x58964 (= (_ bv10 8) ?x58597)))
 (let ((?x64498 (ite $x58964 (_ bv1 1) (_ bv0 1))))
 (let ((?x58690 ((_ extract 31 24) mem_fffffffffffffff0_163_128)))
 (let (($x76776 (= (_ bv10 8) ?x58690)))
 (let ((?x59133 (ite $x76776 (_ bv1 1) (_ bv0 1))))
 (let ((?x77640 ((_ extract 39 32) mem_fffffffffffffff0_163_128)))
 (let (($x63433 (= (_ bv10 8) ?x77640)))
 (let ((?x63532 (ite $x63433 (_ bv1 1) (_ bv0 1))))
 (let ((?x62490 ((_ extract 47 40) mem_fffffffffffffff0_163_128)))
 (let (($x59208 (= (_ bv10 8) ?x62490)))
 (let ((?x63837 (ite $x59208 (_ bv1 1) (_ bv0 1))))
 (let ((?x76579 ((_ extract 55 48) mem_fffffffffffffff0_163_128)))
 (let (($x62873 (= (_ bv10 8) ?x76579)))
 (let ((?x59239 (ite $x62873 (_ bv1 1) (_ bv0 1))))
 (let ((?x57987 ((_ extract 63 56) mem_fffffffffffffff0_163_128)))
 (let (($x58712 (= (_ bv10 8) ?x57987)))
 (let ((?x62759 (ite $x58712 (_ bv1 1) (_ bv0 1))))
 (let ((?x77319 ((_ extract 71 64) mem_fffffffffffffff0_163_128)))
 (let (($x59058 (= (_ bv10 8) ?x77319)))
 (let ((?x71846 (ite $x59058 (_ bv1 1) (_ bv0 1))))
 (let ((?x63697 ((_ extract 79 72) mem_fffffffffffffff0_163_128)))
 (let (($x58146 (= (_ bv10 8) ?x63697)))
 (let ((?x57735 (ite $x58146 (_ bv1 1) (_ bv0 1))))
 (let ((?x63795 ((_ extract 87 80) mem_fffffffffffffff0_163_128)))
 (let (($x76994 (= (_ bv10 8) ?x63795)))
 (let ((?x64401 (ite $x76994 (_ bv1 1) (_ bv0 1))))
 (let ((?x71702 ((_ extract 95 88) mem_fffffffffffffff0_163_128)))
 (let (($x58127 (= (_ bv10 8) ?x71702)))
 (let ((?x58365 (ite $x58127 (_ bv1 1) (_ bv0 1))))
 (let ((?x58654 ((_ extract 103 96) mem_fffffffffffffff0_163_128)))
 (let (($x58383 (= (_ bv10 8) ?x58654)))
 (let ((?x63176 (ite $x58383 (_ bv1 1) (_ bv0 1))))
 (let ((?x71285 ((_ extract 111 104) mem_fffffffffffffff0_163_128)))
 (let (($x63962 (= (_ bv10 8) ?x71285)))
 (let ((?x63039 (ite $x63962 (_ bv1 1) (_ bv0 1))))
 (let ((?x58576 ((_ extract 119 112) mem_fffffffffffffff0_163_128)))
 (let (($x64005 (= (_ bv10 8) ?x58576)))
 (let ((?x71714 (ite $x64005 (_ bv1 1) (_ bv0 1))))
 (let ((?x63827 ((_ extract 127 120) mem_fffffffffffffff0_163_128)))
 (let (($x62607 (= (_ bv10 8) ?x63827)))
 (let ((?x70538 (ite $x62607 (_ bv1 1) (_ bv0 1))))
 (let ((?x64858 (concat (concat (concat (concat (concat (_ bv0 48) ?x70538) ?x71714) ?x63039) ?x63176) ?x58365)))
 (let ((?x61977 (concat (concat (concat (concat (concat ?x64858 ?x64401) ?x57735) ?x71846) ?x62759) ?x59239)))
 (let ((?x68508 (concat (concat (concat (concat (concat ?x61977 ?x63837) ?x63532) ?x59133) ?x64498) ?x59309)))
 (let ((?x57475 (concat ?x68508 ?x58929)))
 (let ((?x61781 (bvashr ?x57475 ?x6432)))
 (let ((?x61434 ((_ extract 31 0) ?x61781)))
 (= (_ bv0 32) ?x61434))))))))))))))))))))))))))))))))))))))))))))))))))))))))))
(assert
 (let ((?x6423 ((_ extract 835 832) mem_c0000f45_79_992)))
 (let ((?x6432 (concat (_ bv0 60) ?x6423)))
 (let ((?x10865 (bvmul (_ bv18446744073709551615 64) ?x6432)))
 (let ((?x10876 (bvadd (_ bv16 64) ?x10865)))
 (let ((?x2374 ((_ extract 839 832) mem_c0000f45_79_992)))
 (let ((?x11156 (concat (_ bv72057594037927935 56) ?x2374)))
 (let ((?x11157 (bvmul (_ bv18446744073709551615 64) ?x11156)))
 (let ((?x2427 ((_ extract 775 768) mem_c0000f45_79_992)))
 (let ((?x2419 ((_ extract 767 760) mem_c0000f45_79_992)))
 (let ((?x2429 ((_ extract 759 752) mem_c0000f45_79_992)))
 (let ((?x2417 ((_ extract 751 744) mem_c0000f45_79_992)))
 (let ((?x2410 ((_ extract 743 736) mem_c0000f45_79_992)))
 (let ((?x2411 ((_ extract 735 728) mem_c0000f45_79_992)))
 (let ((?x4124 (concat (concat ((_ extract 719 712) mem_c0000f45_79_992) ((_ extract 727 720) mem_c0000f45_79_992)) ?x2411)))
 (let ((?x4642 (concat ?x4124 ?x2410)))
 (let ((?x3823 (concat (concat (concat (concat ?x4642 ?x2417) ?x2429) ?x2419) ?x2427)))
 (let ((?x17565 (bvadd ?x3823 ?x11157)))
 (let ((?x3615 ((_ extract 824 824) mem_c0000f45_79_992)))
 (let ((?x3589 (concat ?x3615 ?x2374)))
 (let ((?x4638 (bvmul (_ bv511 9) ?x3589)))
 (let ((?x4203 ((_ extract 760 760) mem_c0000f45_79_992)))
 (let ((?x3607 (concat ?x4203 ?x2427)))
 (let ((?x3785 (bvadd ?x3607 ?x4638)))
 (let (($x4511 (bvule ?x3785 (_ bv399 9))))
 (let ((?x17607 ((_ extract 63 9) ?x17565)))
 (let (($x17611 (= (_ bv0 55) ?x17607)))
 (let (($x17584 (and $x17611 $x4511)))
 (let ((?x17711 (ite $x17584 ?x17565 (_ bv399 64))))
 (let (($x17615 (bvule ?x17711 ?x10876)))
 (not $x17615)))))))))))))))))))))))))))))))
(assert
 (let ((?x2364 ((_ extract 831 824) mem_c0000f45_79_992)))
 (= (_ bv255 8) ?x2364)))
(assert
 (let ((?x2349 ((_ extract 823 816) mem_c0000f45_79_992)))
 (= (_ bv255 8) ?x2349)))
(assert
 (let ((?x2357 ((_ extract 815 808) mem_c0000f45_79_992)))
 (= (_ bv255 8) ?x2357)))
(assert
 (let ((?x2362 ((_ extract 807 800) mem_c0000f45_79_992)))
 (= (_ bv255 8) ?x2362)))
(assert
 (let ((?x2363 ((_ extract 799 792) mem_c0000f45_79_992)))
 (= (_ bv255 8) ?x2363)))
(assert
 (let ((?x2346 ((_ extract 791 784) mem_c0000f45_79_992)))
 (= (_ bv255 8) ?x2346)))
(assert
 (let ((?x2345 ((_ extract 783 776) mem_c0000f45_79_992)))
 (= (_ bv255 8) ?x2345)))
(assert
 (let ((?x2400 ((_ extract 719 712) mem_c0000f45_79_992)))
 (let (($x17560 (= (_ bv255 8) ?x2400)))
 (let (($x17562 (not $x17560)))
 (let ((?x2374 ((_ extract 839 832) mem_c0000f45_79_992)))
 (let ((?x2427 ((_ extract 775 768) mem_c0000f45_79_992)))
 (let (($x1152 (= ?x2427 ?x2374)))
 (let (($x4139 (not $x1152)))
 (let ((?x2411 ((_ extract 735 728) mem_c0000f45_79_992)))
 (let (($x17604 (= (_ bv255 8) ?x2411)))
 (let (($x17721 (not $x17604)))
 (let ((?x2401 ((_ extract 727 720) mem_c0000f45_79_992)))
 (let (($x17731 (= (_ bv255 8) ?x2401)))
 (let (($x17664 (not $x17731)))
 (let ((?x2417 ((_ extract 751 744) mem_c0000f45_79_992)))
 (let (($x17650 (= (_ bv255 8) ?x2417)))
 (let (($x17555 (not $x17650)))
 (let ((?x2410 ((_ extract 743 736) mem_c0000f45_79_992)))
 (let (($x17595 (= (_ bv255 8) ?x2410)))
 (let (($x17616 (not $x17595)))
 (let ((?x2419 ((_ extract 767 760) mem_c0000f45_79_992)))
 (let (($x17574 (= (_ bv255 8) ?x2419)))
 (let (($x17598 (not $x17574)))
 (let ((?x2429 ((_ extract 759 752) mem_c0000f45_79_992)))
 (let (($x17591 (= (_ bv255 8) ?x2429)))
 (let (($x17582 (not $x17591)))
 (or $x17582 $x17598 $x17616 $x17555 $x17664 $x17721 $x4139 $x17562)))))))))))))))))))))))))))
(assert
 (let ((?x6423 ((_ extract 835 832) mem_c0000f45_79_992)))
 (let ((?x14178 (concat (_ bv7 3) ?x6423)))
 (let ((?x14167 ((_ extract 838 832) mem_c0000f45_79_992)))
 (let ((?x14394 (bvmul (_ bv127 7) ?x14167)))
 (let ((?x13987 ((_ extract 774 768) mem_c0000f45_79_992)))
 (let ((?x14007 (bvadd ?x13987 ?x14394)))
 (let ((?x2374 ((_ extract 839 832) mem_c0000f45_79_992)))
 (let ((?x3615 ((_ extract 824 824) mem_c0000f45_79_992)))
 (let ((?x3589 (concat ?x3615 ?x2374)))
 (let ((?x4638 (bvmul (_ bv511 9) ?x3589)))
 (let ((?x2427 ((_ extract 775 768) mem_c0000f45_79_992)))
 (let ((?x4203 ((_ extract 760 760) mem_c0000f45_79_992)))
 (let ((?x3607 (concat ?x4203 ?x2427)))
 (let ((?x3785 (bvadd ?x3607 ?x4638)))
 (let (($x4511 (bvule ?x3785 (_ bv399 9))))
 (let ((?x11156 (concat (_ bv72057594037927935 56) ?x2374)))
 (let ((?x11157 (bvmul (_ bv18446744073709551615 64) ?x11156)))
 (let ((?x2419 ((_ extract 767 760) mem_c0000f45_79_992)))
 (let ((?x2429 ((_ extract 759 752) mem_c0000f45_79_992)))
 (let ((?x2417 ((_ extract 751 744) mem_c0000f45_79_992)))
 (let ((?x2410 ((_ extract 743 736) mem_c0000f45_79_992)))
 (let ((?x2411 ((_ extract 735 728) mem_c0000f45_79_992)))
 (let ((?x4124 (concat (concat ((_ extract 719 712) mem_c0000f45_79_992) ((_ extract 727 720) mem_c0000f45_79_992)) ?x2411)))
 (let ((?x4642 (concat ?x4124 ?x2410)))
 (let ((?x3823 (concat (concat (concat (concat ?x4642 ?x2417) ?x2429) ?x2419) ?x2427)))
 (let ((?x17565 (bvadd ?x3823 ?x11157)))
 (let ((?x17607 ((_ extract 63 9) ?x17565)))
 (let (($x17611 (= (_ bv0 55) ?x17607)))
 (let (($x17584 (and $x17611 $x4511)))
 (let ((?x17612 (ite $x17584 ?x14007 (_ bv15 7))))
 (let ((?x17567 (bvadd ?x17612 ?x14178)))
 (let (($x17658 (bvule ?x17567 (_ bv64 7))))
 (let (($x17618 (not $x17658)))
 (let ((?x10887 (concat (_ bv1152921504606846975 60) ?x6423)))
 (let ((?x17711 (ite $x17584 ?x17565 (_ bv399 64))))
 (let ((?x17597 (bvadd ?x17711 ?x10887)))
 (let ((?x17570 ((_ extract 63 7) ?x17597)))
 (let (($x17733 (= (_ bv0 57) ?x17570)))
 (let (($x17662 (not $x17733)))
 (or $x17662 $x17618)))))))))))))))))))))))))))))))))))))))))
(assert
 (let (($x2293 (= (_ bv0 32) mem_c0001010_98_32)))
 (not $x2293)))
(assert
 (let ((?x129292 ((_ extract 15 8) mem_0_225_128)))
 (let (($x129336 (= (_ bv10 8) ?x129292)))
 (not $x129336))))
(assert
 (let ((?x129281 ((_ extract 7 0) mem_0_225_128)))
 (let (($x129316 (= (_ bv10 8) ?x129281)))
 (not $x129316))))
(assert
 (let ((?x123166 ((_ extract 23 16) mem_0_225_128)))
 (let (($x129381 (= (_ bv10 8) ?x123166)))
 (not $x129381))))
(assert
 (let ((?x123299 ((_ extract 31 24) mem_0_225_128)))
 (let (($x129334 (= (_ bv10 8) ?x123299)))
 (not $x129334))))
(assert
 (let ((?x129330 ((_ extract 39 32) mem_0_225_128)))
 (let (($x129324 (= (_ bv10 8) ?x129330)))
 (not $x129324))))
(assert
 (let ((?x129657 ((_ extract 47 40) mem_0_225_128)))
 (let (($x129098 (= (_ bv10 8) ?x129657)))
 (not $x129098))))
(assert
 (let ((?x129728 ((_ extract 55 48) mem_0_225_128)))
 (let (($x129727 (= (_ bv10 8) ?x129728)))
 (not $x129727))))
(assert
 (let ((?x129741 ((_ extract 63 56) mem_0_225_128)))
 (let (($x129729 (= (_ bv10 8) ?x129741)))
 (not $x129729))))
(assert
 (let ((?x130656 ((_ extract 71 64) mem_0_225_128)))
 (let (($x130660 (= (_ bv10 8) ?x130656)))
 (not $x130660))))
(assert
 (let ((?x129743 ((_ extract 79 72) mem_0_225_128)))
 (let (($x130657 (= (_ bv10 8) ?x129743)))
 (not $x130657))))
(assert
 (let ((?x129731 ((_ extract 87 80) mem_0_225_128)))
 (let (($x129750 (= (_ bv10 8) ?x129731)))
 (not $x129750))))
(assert
 (let ((?x129734 ((_ extract 95 88) mem_0_225_128)))
 (let (($x129735 (= (_ bv10 8) ?x129734)))
 (not $x129735))))
(assert
 (let ((?x129730 ((_ extract 103 96) mem_0_225_128)))
 (let (($x129738 (= (_ bv10 8) ?x129730)))
 (not $x129738))))
(assert
 (let ((?x129748 ((_ extract 111 104) mem_0_225_128)))
 (let (($x129752 (= (_ bv10 8) ?x129748)))
 (not $x129752))))
(assert
 (let ((?x129749 ((_ extract 119 112) mem_0_225_128)))
 (let (($x129742 (= (_ bv10 8) ?x129749)))
 (not $x129742))))
(assert
 (let ((?x130583 ((_ extract 127 120) mem_0_225_128)))
 (let (($x130659 (= (_ bv10 8) ?x130583)))
 (not $x130659))))
(assert
 (let ((?x25725 ((_ extract 15 8) mem_10_254_128)))
 (let (($x18437 (= (_ bv10 8) ?x25725)))
 (not $x18437))))
(assert
 (let ((?x18305 ((_ extract 7 0) mem_10_254_128)))
 (let (($x18591 (= (_ bv10 8) ?x18305)))
 (not $x18591))))
(assert
 (let ((?x26434 ((_ extract 23 16) mem_10_254_128)))
 (let (($x25377 (= (_ bv10 8) ?x26434)))
 (not $x25377))))
(assert
 (let ((?x14721 ((_ extract 31 24) mem_10_254_128)))
 (let (($x10574 (= (_ bv10 8) ?x14721)))
 (not $x10574))))
(assert
 (let ((?x23156 ((_ extract 39 32) mem_10_254_128)))
 (let (($x120804 (= (_ bv10 8) ?x23156)))
 (not $x120804))))
(assert
 (let ((?x209495 ((_ extract 47 40) mem_10_254_128)))
 (let (($x209296 (= (_ bv10 8) ?x209495)))
 (not $x209296))))
(assert
 (let ((?x208457 ((_ extract 55 48) mem_10_254_128)))
 (let (($x208290 (= (_ bv10 8) ?x208457)))
 (not $x208290))))
(assert
 (let ((?x16171 ((_ extract 63 56) mem_10_254_128)))
 (let (($x209229 (= (_ bv10 8) ?x16171)))
 (not $x209229))))
(assert
 (let ((?x205884 ((_ extract 71 64) mem_10_254_128)))
 (let (($x209220 (= (_ bv10 8) ?x205884)))
 (not $x209220))))
(assert
 (let ((?x15658 ((_ extract 79 72) mem_10_254_128)))
 (let (($x208868 (= (_ bv10 8) ?x15658)))
 (not $x208868))))
(assert
 (let ((?x205705 ((_ extract 87 80) mem_10_254_128)))
 (let (($x208365 (= (_ bv10 8) ?x205705)))
 (not $x208365))))
(assert
 (let ((?x209649 ((_ extract 95 88) mem_10_254_128)))
 (let (($x208406 (= (_ bv10 8) ?x209649)))
 (not $x208406))))
(assert
 (let ((?x208574 ((_ extract 103 96) mem_10_254_128)))
 (let (($x203106 (= (_ bv10 8) ?x208574)))
 (not $x203106))))
(assert
 (let ((?x208640 ((_ extract 111 104) mem_10_254_128)))
 (let (($x205698 (= (_ bv10 8) ?x208640)))
 (not $x205698))))
(assert
 (let ((?x208172 ((_ extract 119 112) mem_10_254_128)))
 (let (($x209601 (= (_ bv10 8) ?x208172)))
 (not $x209601))))
(assert
 (let ((?x209361 ((_ extract 127 120) mem_10_254_128)))
 (let (($x15446 (= (_ bv10 8) ?x209361)))
 (not $x15446))))
(assert
 (let ((?x438052 ((_ extract 15 8) mem_20_298_128)))
 (let (($x434682 (= (_ bv10 8) ?x438052)))
 (not $x434682))))
(assert
 (let ((?x441693 ((_ extract 7 0) mem_20_298_128)))
 (let (($x438113 (= (_ bv10 8) ?x441693)))
 (not $x438113))))
(assert
 (let ((?x437048 ((_ extract 23 16) mem_20_298_128)))
 (let (($x436789 (= (_ bv10 8) ?x437048)))
 (not $x436789))))
(assert
 (let ((?x437106 ((_ extract 31 24) mem_20_298_128)))
 (let (($x437239 (= (_ bv10 8) ?x437106)))
 (not $x437239))))
(assert
 (let ((?x397858 ((_ extract 39 32) mem_20_298_128)))
 (let (($x438395 (= (_ bv10 8) ?x397858)))
 (not $x438395))))
(assert
 (let ((?x378102 ((_ extract 47 40) mem_20_298_128)))
 (let (($x437744 (= (_ bv10 8) ?x378102)))
 (not $x437744))))
(assert
 (let ((?x438979 ((_ extract 55 48) mem_20_298_128)))
 (let (($x437332 (= (_ bv10 8) ?x438979)))
 (not $x437332))))
(assert
 (let ((?x437853 ((_ extract 63 56) mem_20_298_128)))
 (let (($x438545 (= (_ bv10 8) ?x437853)))
 (not $x438545))))
(assert
 (let ((?x438720 ((_ extract 71 64) mem_20_298_128)))
 (let (($x437325 (= (_ bv10 8) ?x438720)))
 (not $x437325))))
(assert
 (let ((?x436863 ((_ extract 79 72) mem_20_298_128)))
 (let (($x437830 (= (_ bv10 8) ?x436863)))
 (not $x437830))))
(assert
 (let ((?x440616 ((_ extract 87 80) mem_20_298_128)))
 (let (($x438570 (= (_ bv10 8) ?x440616)))
 (not $x438570))))
(assert
 (let ((?x435248 ((_ extract 95 88) mem_20_298_128)))
 (let (($x440644 (= (_ bv10 8) ?x435248)))
 (not $x440644))))
(assert
 (let ((?x437085 ((_ extract 103 96) mem_20_298_128)))
 (let (($x399871 (= (_ bv10 8) ?x437085)))
 (not $x399871))))
(assert
 (let ((?x438602 ((_ extract 111 104) mem_20_298_128)))
 (let (($x438263 (= (_ bv10 8) ?x438602)))
 (not $x438263))))
(assert
 (let ((?x438678 ((_ extract 119 112) mem_20_298_128)))
 (let (($x438934 (= (_ bv10 8) ?x438678)))
 (not $x438934))))
(assert
 (let ((?x438724 ((_ extract 127 120) mem_20_298_128)))
 (let (($x438948 (= (_ bv10 8) ?x438724)))
 (not $x438948))))
(assert
 (let ((?x6435 ((_ extract 839 836) mem_c0000f45_79_992)))
 (let ((?x2364 ((_ extract 831 824) mem_c0000f45_79_992)))
 (let ((?x2349 ((_ extract 823 816) mem_c0000f45_79_992)))
 (let ((?x2357 ((_ extract 815 808) mem_c0000f45_79_992)))
 (let ((?x2362 ((_ extract 807 800) mem_c0000f45_79_992)))
 (let ((?x2363 ((_ extract 799 792) mem_c0000f45_79_992)))
 (let ((?x593 (concat (concat ((_ extract 783 776) mem_c0000f45_79_992) ((_ extract 791 784) mem_c0000f45_79_992)) ?x2363)))
 (let ((?x4215 (concat (concat (concat (concat ?x593 ?x2362) ?x2357) ?x2349) ?x2364)))
 (let ((?x14202 (concat (concat ?x4215 ?x6435) (_ bv0 4))))
 (let ((?x36827 (bvadd ?x14202 (_ bv64 64))))
 (= (_ bv48 64) ?x36827))))))))))))
(assert
 (let ((?x390855 ((_ extract 7 0) mem_30_352_128)))
 (let (($x386211 (= (_ bv10 8) ?x390855)))
 (let ((?x664413 (ite $x386211 (_ bv1 1) (_ bv0 1))))
 (let ((?x663311 ((_ extract 15 8) mem_30_352_128)))
 (let (($x650941 (= (_ bv10 8) ?x663311)))
 (let ((?x649900 (ite $x650941 (_ bv1 1) (_ bv0 1))))
 (let ((?x401714 ((_ extract 23 16) mem_30_352_128)))
 (let (($x663227 (= (_ bv10 8) ?x401714)))
 (let ((?x662883 (ite $x663227 (_ bv1 1) (_ bv0 1))))
 (let ((?x402105 ((_ extract 31 24) mem_30_352_128)))
 (let (($x661597 (= (_ bv10 8) ?x402105)))
 (let ((?x664412 (ite $x661597 (_ bv1 1) (_ bv0 1))))
 (let ((?x664222 ((_ extract 39 32) mem_30_352_128)))
 (let (($x400750 (= (_ bv10 8) ?x664222)))
 (let ((?x662532 (ite $x400750 (_ bv1 1) (_ bv0 1))))
 (let ((?x664534 ((_ extract 47 40) mem_30_352_128)))
 (let (($x664512 (= (_ bv10 8) ?x664534)))
 (let ((?x664513 (ite $x664512 (_ bv1 1) (_ bv0 1))))
 (let ((?x650218 ((_ extract 55 48) mem_30_352_128)))
 (let (($x664149 (= (_ bv10 8) ?x650218)))
 (let ((?x650098 (ite $x664149 (_ bv1 1) (_ bv0 1))))
 (let ((?x663088 ((_ extract 63 56) mem_30_352_128)))
 (let (($x664039 (= (_ bv10 8) ?x663088)))
 (let ((?x662858 (ite $x664039 (_ bv1 1) (_ bv0 1))))
 (let ((?x664476 ((_ extract 71 64) mem_30_352_128)))
 (let (($x663358 (= (_ bv10 8) ?x664476)))
 (let ((?x664167 (ite $x663358 (_ bv1 1) (_ bv0 1))))
 (let ((?x661313 ((_ extract 79 72) mem_30_352_128)))
 (let (($x649925 (= (_ bv10 8) ?x661313)))
 (let ((?x617469 (ite $x649925 (_ bv1 1) (_ bv0 1))))
 (let ((?x664275 ((_ extract 87 80) mem_30_352_128)))
 (let (($x657494 (= (_ bv10 8) ?x664275)))
 (let ((?x663125 (ite $x657494 (_ bv1 1) (_ bv0 1))))
 (let ((?x84185 ((_ extract 95 88) mem_30_352_128)))
 (let (($x662741 (= (_ bv10 8) ?x84185)))
 (let ((?x386503 (ite $x662741 (_ bv1 1) (_ bv0 1))))
 (let ((?x664428 ((_ extract 103 96) mem_30_352_128)))
 (let (($x659449 (= (_ bv10 8) ?x664428)))
 (let ((?x194908 (ite $x659449 (_ bv1 1) (_ bv0 1))))
 (let ((?x656355 ((_ extract 111 104) mem_30_352_128)))
 (let (($x664406 (= (_ bv10 8) ?x656355)))
 (let ((?x400563 (ite $x664406 (_ bv1 1) (_ bv0 1))))
 (let ((?x664178 ((_ extract 119 112) mem_30_352_128)))
 (let (($x664405 (= (_ bv10 8) ?x664178)))
 (let ((?x392917 (ite $x664405 (_ bv1 1) (_ bv0 1))))
 (let ((?x664514 ((_ extract 127 120) mem_30_352_128)))
 (let (($x400968 (= (_ bv10 8) ?x664514)))
 (let ((?x396390 (ite $x400968 (_ bv1 1) (_ bv0 1))))
 (let ((?x662730 (concat (concat (concat (concat (concat ?x396390 ?x392917) ?x400563) ?x194908) ?x386503) ?x663125)))
 (let ((?x664500 (concat (concat (concat (concat (concat ?x662730 ?x617469) ?x664167) ?x662858) ?x650098) ?x664513)))
 (let ((?x664536 (concat (concat (concat (concat (concat ?x664500 ?x662532) ?x664412) ?x662883) ?x649900) ?x664413)))
 (= (_ bv0 16) ?x664536)))))))))))))))))))))))))))))))))))))))))))))))))))))
(assert
 (let ((?x6435 ((_ extract 839 836) mem_c0000f45_79_992)))
 (let ((?x2364 ((_ extract 831 824) mem_c0000f45_79_992)))
 (let ((?x2349 ((_ extract 823 816) mem_c0000f45_79_992)))
 (let ((?x2357 ((_ extract 815 808) mem_c0000f45_79_992)))
 (let ((?x2362 ((_ extract 807 800) mem_c0000f45_79_992)))
 (let ((?x2363 ((_ extract 799 792) mem_c0000f45_79_992)))
 (let ((?x593 (concat (concat ((_ extract 783 776) mem_c0000f45_79_992) ((_ extract 791 784) mem_c0000f45_79_992)) ?x2363)))
 (let ((?x4215 (concat (concat (concat (concat ?x593 ?x2362) ?x2357) ?x2349) ?x2364)))
 (let ((?x14202 (concat (concat ?x4215 ?x6435) (_ bv0 4))))
 (let ((?x44045 (bvadd (_ bv80 64) ?x14202)))
 (let ((?x44093 ((_ extract 7 0) ?x44045)))
 (let ((?x45405 (bvand ?x44093 (_ bv63 8))))
 (= (_ bv0 8) ?x45405))))))))))))))
(assert
 (let ((?x6423 ((_ extract 835 832) mem_c0000f45_79_992)))
 (let ((?x10887 (concat (_ bv1152921504606846975 60) ?x6423)))
 (let ((?x2374 ((_ extract 839 832) mem_c0000f45_79_992)))
 (let ((?x2364 ((_ extract 831 824) mem_c0000f45_79_992)))
 (let ((?x2349 ((_ extract 823 816) mem_c0000f45_79_992)))
 (let ((?x2357 ((_ extract 815 808) mem_c0000f45_79_992)))
 (let ((?x2362 ((_ extract 807 800) mem_c0000f45_79_992)))
 (let ((?x2363 ((_ extract 799 792) mem_c0000f45_79_992)))
 (let ((?x593 (concat (concat ((_ extract 783 776) mem_c0000f45_79_992) ((_ extract 791 784) mem_c0000f45_79_992)) ?x2363)))
 (let ((?x4215 (concat (concat (concat (concat ?x593 ?x2362) ?x2357) ?x2349) ?x2364)))
 (let ((?x3812 (concat ?x4215 ?x2374)))
 (let ((?x3646 (bvmul (_ bv18446744073709551615 64) ?x3812)))
 (let ((?x2427 ((_ extract 775 768) mem_c0000f45_79_992)))
 (let ((?x2419 ((_ extract 767 760) mem_c0000f45_79_992)))
 (let ((?x2429 ((_ extract 759 752) mem_c0000f45_79_992)))
 (let ((?x2417 ((_ extract 751 744) mem_c0000f45_79_992)))
 (let ((?x2410 ((_ extract 743 736) mem_c0000f45_79_992)))
 (let ((?x2411 ((_ extract 735 728) mem_c0000f45_79_992)))
 (let ((?x4124 (concat (concat ((_ extract 719 712) mem_c0000f45_79_992) ((_ extract 727 720) mem_c0000f45_79_992)) ?x2411)))
 (let ((?x4642 (concat ?x4124 ?x2410)))
 (let ((?x3823 (concat (concat (concat (concat ?x4642 ?x2417) ?x2429) ?x2419) ?x2427)))
 (let ((?x3827 (bvadd ?x3823 ?x3646)))
 (let ((?x3615 ((_ extract 824 824) mem_c0000f45_79_992)))
 (let ((?x3589 (concat ?x3615 ?x2374)))
 (let ((?x4638 (bvmul (_ bv511 9) ?x3589)))
 (let ((?x4203 ((_ extract 760 760) mem_c0000f45_79_992)))
 (let ((?x3607 (concat ?x4203 ?x2427)))
 (let ((?x3785 (bvadd ?x3607 ?x4638)))
 (let (($x4511 (bvule ?x3785 (_ bv399 9))))
 (let ((?x4614 ((_ extract 63 9) ?x3827)))
 (let (($x4610 (= (_ bv0 55) ?x4614)))
 (let (($x4615 (and $x4610 $x4511)))
 (let ((?x4508 (ite $x4615 ?x3827 (_ bv399 64))))
 (let ((?x16874 (bvadd (bvadd (_ bv18446744073709551552 64) ?x4508) ?x10887)))
 (bvule ?x16874 (_ bv64 64)))))))))))))))))))))))))))))))))))))
(assert
 (let ((?x6423 ((_ extract 835 832) mem_c0000f45_79_992)))
 (let ((?x10887 (concat (_ bv1152921504606846975 60) ?x6423)))
 (let ((?x2374 ((_ extract 839 832) mem_c0000f45_79_992)))
 (let ((?x2364 ((_ extract 831 824) mem_c0000f45_79_992)))
 (let ((?x2349 ((_ extract 823 816) mem_c0000f45_79_992)))
 (let ((?x2357 ((_ extract 815 808) mem_c0000f45_79_992)))
 (let ((?x2362 ((_ extract 807 800) mem_c0000f45_79_992)))
 (let ((?x2363 ((_ extract 799 792) mem_c0000f45_79_992)))
 (let ((?x593 (concat (concat ((_ extract 783 776) mem_c0000f45_79_992) ((_ extract 791 784) mem_c0000f45_79_992)) ?x2363)))
 (let ((?x4215 (concat (concat (concat (concat ?x593 ?x2362) ?x2357) ?x2349) ?x2364)))
 (let ((?x3812 (concat ?x4215 ?x2374)))
 (let ((?x3646 (bvmul (_ bv18446744073709551615 64) ?x3812)))
 (let ((?x2427 ((_ extract 775 768) mem_c0000f45_79_992)))
 (let ((?x2419 ((_ extract 767 760) mem_c0000f45_79_992)))
 (let ((?x2429 ((_ extract 759 752) mem_c0000f45_79_992)))
 (let ((?x2417 ((_ extract 751 744) mem_c0000f45_79_992)))
 (let ((?x2410 ((_ extract 743 736) mem_c0000f45_79_992)))
 (let ((?x2411 ((_ extract 735 728) mem_c0000f45_79_992)))
 (let ((?x4124 (concat (concat ((_ extract 719 712) mem_c0000f45_79_992) ((_ extract 727 720) mem_c0000f45_79_992)) ?x2411)))
 (let ((?x4642 (concat ?x4124 ?x2410)))
 (let ((?x3823 (concat (concat (concat (concat ?x4642 ?x2417) ?x2429) ?x2419) ?x2427)))
 (let ((?x3827 (bvadd ?x3823 ?x3646)))
 (let ((?x3615 ((_ extract 824 824) mem_c0000f45_79_992)))
 (let ((?x3589 (concat ?x3615 ?x2374)))
 (let ((?x4638 (bvmul (_ bv511 9) ?x3589)))
 (let ((?x4203 ((_ extract 760 760) mem_c0000f45_79_992)))
 (let ((?x3607 (concat ?x4203 ?x2427)))
 (let ((?x3785 (bvadd ?x3607 ?x4638)))
 (let (($x4511 (bvule ?x3785 (_ bv399 9))))
 (let ((?x4614 ((_ extract 63 9) ?x3827)))
 (let (($x4610 (= (_ bv0 55) ?x4614)))
 (let (($x4615 (and $x4610 $x4511)))
 (let ((?x4508 (ite $x4615 ?x3827 (_ bv399 64))))
 (let ((?x64852 (bvadd (bvadd (_ bv18446744073709551488 64) ?x4508) ?x10887)))
 (let ((?x64658 ((_ extract 31 0) ?x64852)))
 (let ((?x61164 (bvadd ?x64658 (_ bv32 32))))
 (let (($x62795 (= (_ bv0 32) ?x61164)))
 (let ((?x59292 (ite $x62795 (_ bv1 1) (_ bv0 1))))
 (let ((?x59452 ((_ extract 31 31) ?x61164)))
 (let ((?x63297 ((_ extract 31 31) ?x64852)))
 (let ((?x58754 (bvxor ?x63297 ?x59452)))
 (let ((?x64266 (bvxor ?x63297 (_ bv1 1))))
 (let ((?x59540 (bvand ?x64266 ?x58754)))
 (let ((?x62636 (bvxor ?x59452 ?x59540)))
 (let ((?x59920 (bvor ?x62636 ?x59292)))
 (= (_ bv0 1) ?x59920)))))))))))))))))))))))))))))))))))))))))))))))
(minimize mem_20_298_128)
(maximize mem_c0000f45_79_992)
(maximize mem_c0080014_89_32)
(minimize mem_fffffffffffffff0_163_128)
(maximize mem_10_254_128)
(maximize syscall_stub_newfstatat_83_64)
(minimize mem_10_254_128)
(minimize mem_0_225_128)
(minimize mem_c0080008_85_32)
(minimize syscall_stub_newfstatat_83_64)
(minimize mem_c0080020_87_32)
(maximize mem_c0080024_86_32)
(maximize mem_30_352_128)
(minimize mem_c0080018_88_32)
(minimize mem_c0080024_86_32)
(minimize mem_30_352_128)
(minimize mem_c0001010_98_32)
(maximize mem_c0001010_98_32)
(check-sat)
(get-objectives)
